decision_x1=[0,2];
decision_x2=[0,2];
decision_x3=[0,2];
decision_x4=[0,2];
decision_x5=[0,2];
decision_x6=[0,2];
decision_x7=[0,2];
decision_x8=[0,2];
decision_x9=[0,2];
decision_x10=[0,2];
decision_x11=[0,2];
decision_x12=[0,2];
random_y1=[0,2];
random_y2=[0,2];
random_y3=[0,2];
random_y4=[0,2];
random_y5=[0,2];
random_y6=[0,2];
random_y7=[0,2];
random_y8=[0,2];
random_y9=[0,2];
random_y10=[0,2];
random_y11=[0,2];
random_y12=[0,2];
constraint_x3_x1=[
0,0,78|
0,1,5.2|
0,2,7|
1,0,26|
1,1,1.2|
1,2,99|
2,0,47|
2,1,77|
2,2,91|
];
constraint_x4_x1=[
0,0,89|
0,1,94|
0,2,5.4|
1,0,3.8|
1,1,32|
1,2,57|
2,0,48|
2,1,98|
2,2,76|
];
constraint_x4_x2=[
0,0,55|
0,1,1e+02|
0,2,37|
1,0,82|
1,1,74|
1,2,44|
2,0,88|
2,1,56|
2,2,56|
];
constraint_x5_x1=[
0,0,56|
0,1,3.2|
0,2,47|
1,0,51|
1,1,7.9|
1,2,91|
2,0,1.9|
2,1,77|
2,2,19|
];
constraint_x5_x2=[
0,0,22|
0,1,61|
0,2,94|
1,0,82|
1,1,93|
1,2,44|
2,0,40|
2,1,27|
2,2,42|
];
constraint_x5_x4=[
0,0,75|
0,1,8.4|
0,2,63|
1,0,4.5|
1,1,53|
1,2,24|
2,0,55|
2,1,42|
2,2,44|
];
constraint_x6_x1=[
0,0,82|
0,1,3.2|
0,2,24|
1,0,14|
1,1,58|
1,2,58|
2,0,60|
2,1,58|
2,2,16|
];
constraint_x6_x3=[
0,0,27|
0,1,10|
0,2,19|
1,0,75|
1,1,1.3|
1,2,66|
2,0,58|
2,1,20|
2,2,90|
];
constraint_x7_x1=[
0,0,45|
0,1,16|
0,2,41|
1,0,50|
1,1,10|
1,2,67|
2,0,71|
2,1,25|
2,2,73|
];
constraint_x7_x2=[
0,0,19|
0,1,23|
0,2,42|
1,0,31|
1,1,2.4|
1,2,50|
2,0,43|
2,1,4.6|
2,2,82|
];
constraint_x7_x4=[
0,0,76|
0,1,57|
0,2,71|
1,0,91|
1,1,45|
1,2,72|
2,0,7|
2,1,1.4|
2,2,87|
];
constraint_x7_x5=[
0,0,77|
0,1,90|
0,2,13|
1,0,10|
1,1,25|
1,2,69|
2,0,28|
2,1,73|
2,2,7.9|
];
constraint_x8_x2=[
0,0,70|
0,1,1.4|
0,2,15|
1,0,64|
1,1,23|
1,2,97|
2,0,63|
2,1,70|
2,2,29|
];
constraint_x8_x3=[
0,0,1.5|
0,1,93|
0,2,8.7|
1,0,9.8|
1,1,53|
1,2,55|
2,0,61|
2,1,75|
2,2,12|
];
constraint_x8_x7=[
0,0,71|
0,1,3.9|
0,2,17|
1,0,46|
1,1,1e+02|
1,2,66|
2,0,56|
2,1,88|
2,2,0.33|
];
constraint_x9_x2=[
0,0,21|
0,1,97|
0,2,28|
1,0,85|
1,1,91|
1,2,94|
2,0,21|
2,1,89|
2,2,9.4|
];
constraint_x9_x4=[
0,0,14|
0,1,43|
0,2,92|
1,0,55|
1,1,42|
1,2,96|
2,0,69|
2,1,2.8|
2,2,8|
];
constraint_x9_x6=[
0,0,24|
0,1,39|
0,2,19|
1,0,44|
1,1,30|
1,2,80|
2,0,41|
2,1,47|
2,2,29|
];
constraint_x9_x7=[
0,0,60|
0,1,97|
0,2,11|
1,0,12|
1,1,58|
1,2,36|
2,0,39|
2,1,42|
2,2,45|
];
constraint_x10_x2=[
0,0,43|
0,1,47|
0,2,50|
1,0,99|
1,1,42|
1,2,62|
2,0,49|
2,1,81|
2,2,65|
];
constraint_x10_x6=[
0,0,57|
0,1,73|
0,2,10|
1,0,22|
1,1,98|
1,2,36|
2,0,95|
2,1,90|
2,2,61|
];
constraint_x10_x8=[
0,0,50|
0,1,92|
0,2,7.3|
1,0,64|
1,1,16|
1,2,83|
2,0,40|
2,1,96|
2,2,76|
];
constraint_x10_x9=[
0,0,37|
0,1,67|
0,2,73|
1,0,57|
1,1,39|
1,2,50|
2,0,51|
2,1,59|
2,2,94|
];
constraint_x11_x1=[
0,0,79|
0,1,61|
0,2,59|
1,0,63|
1,1,44|
1,2,49|
2,0,68|
2,1,29|
2,2,71|
];
constraint_x11_x2=[
0,0,82|
0,1,26|
0,2,44|
1,0,64|
1,1,82|
1,2,60|
2,0,26|
2,1,63|
2,2,15|
];
constraint_x11_x3=[
0,0,38|
0,1,27|
0,2,5.8|
1,0,32|
1,1,65|
1,2,67|
2,0,35|
2,1,68|
2,2,69|
];
constraint_x11_x4=[
0,0,77|
0,1,9.2|
0,2,27|
1,0,74|
1,1,78|
1,2,94|
2,0,87|
2,1,32|
2,2,70|
];
constraint_x11_x6=[
0,0,82|
0,1,24|
0,2,22|
1,0,95|
1,1,51|
1,2,5.5|
2,0,67|
2,1,38|
2,2,29|
];
constraint_x12_x2=[
0,0,16|
0,1,30|
0,2,58|
1,0,50|
1,1,92|
1,2,98|
2,0,52|
2,1,0.95|
2,2,58|
];
constraint_x12_x4=[
0,0,20|
0,1,4.6|
0,2,82|
1,0,9.4|
1,1,58|
1,2,47|
2,0,27|
2,1,30|
2,2,42|
];
constraint_x12_x7=[
0,0,85|
0,1,37|
0,2,9.8|
1,0,64|
1,1,91|
1,2,78|
2,0,26|
2,1,5.2|
2,2,30|
];
constraint_x12_x9=[
0,0,85|
0,1,89|
0,2,6.6|
1,0,41|
1,1,32|
1,2,40|
2,0,20|
2,1,34|
2,2,67|
];
constraint_x12_x10=[
0,0,13|
0,1,15|
0,2,97|
1,0,64|
1,1,38|
1,2,83|
2,0,37|
2,1,35|
2,2,35|
];
constraint_x1_y1=[
0,0,68|
0,1,76|
0,2,89|
1,0,34|
1,1,21|
1,2,16|
2,0,71|
2,1,35|
2,2,77|
];
constraint_x2_y2=[
0,0,31|
0,1,62|
0,2,81|
1,0,59|
1,1,71|
1,2,32|
2,0,50|
2,1,11|
2,2,31|
];
constraint_x3_y3=[
0,0,53|
0,1,58|
0,2,22|
1,0,35|
1,1,73|
1,2,58|
2,0,42|
2,1,84|
2,2,98|
];
constraint_x4_y4=[
0,0,44|
0,1,91|
0,2,40|
1,0,16|
1,1,6.8|
1,2,34|
2,0,47|
2,1,97|
2,2,83|
];
constraint_x5_y5=[
0,0,98|
0,1,85|
0,2,96|
1,0,28|
1,1,92|
1,2,7.9|
2,0,0.82|
2,1,19|
2,2,46|
];
constraint_x6_y6=[
0,0,52|
0,1,16|
0,2,70|
1,0,50|
1,1,60|
1,2,45|
2,0,39|
2,1,17|
2,2,58|
];
constraint_x7_y7=[
0,0,9.4|
0,1,18|
0,2,91|
1,0,63|
1,1,50|
1,2,58|
2,0,20|
2,1,50|
2,2,87|
];
constraint_x8_y8=[
0,0,25|
0,1,23|
0,2,87|
1,0,97|
1,1,48|
1,2,54|
2,0,40|
2,1,37|
2,2,69|
];
constraint_x9_y9=[
0,0,76|
0,1,16|
0,2,47|
1,0,87|
1,1,9.2|
1,2,82|
2,0,33|
2,1,53|
2,2,28|
];
constraint_x10_y10=[
0,0,9.9|
0,1,28|
0,2,96|
1,0,25|
1,1,51|
1,2,60|
2,0,8.7|
2,1,68|
2,2,19|
];
constraint_x11_y11=[
0,0,80|
0,1,40|
0,2,92|
1,0,54|
1,1,44|
1,2,16|
2,0,20|
2,1,66|
2,2,66|
];
constraint_x12_y12=[
0,0,22|
0,1,35|
0,2,75|
1,0,50|
1,1,78|
1,2,23|
2,0,72|
2,1,91|
2,2,42|
];
initial_distribution_y1=[0.08,0.32,0.61];
initial_distribution_y2=[0.21,0.42,0.37];
initial_distribution_y3=[0.32,0.35,0.33];
initial_distribution_y4=[0.33,0.18,0.49];
initial_distribution_y5=[0.0075,0.47,0.52];
initial_distribution_y6=[0.44,0.45,0.11];
initial_distribution_y7=[0.051,0.58,0.37];
initial_distribution_y8=[0.7,0.069,0.23];
initial_distribution_y9=[0.46,0.42,0.11];
initial_distribution_y10=[0.49,0.48,0.027];
initial_distribution_y11=[0.13,0.43,0.44];
initial_distribution_y12=[0.13,0.16,0.71];
transition_y1=[
0.41,0.36,0.23|
0.35,0.29,0.36|
0.26,0.24,0.51|
];
transition_y2=[
0.19,0.23,0.58|
0.32,0.34,0.34|
0.4,0.42,0.18|
];
transition_y3=[
0.41,0.33,0.25|
0.39,0.29,0.32|
0.48,0.089,0.43|
];
transition_y4=[
0.35,0.069,0.58|
0.25,0.41,0.35|
0.0099,0.46,0.53|
];
transition_y5=[
0.28,0.62,0.11|
0.025,0.33,0.64|
0.054,0.77,0.18|
];
transition_y6=[
0.4,0.29,0.3|
0.13,0.41,0.46|
0.47,0.41,0.12|
];
transition_y7=[
0.3,0.5,0.2|
0.13,0.41,0.46|
0.47,0.47,0.059|
];
transition_y8=[
0.3,0.32,0.39|
0.015,0.54,0.45|
0.57,0.33,0.11|
];
transition_y9=[
0.17,0.41,0.42|
0.14,0.4,0.46|
0.54,0.41,0.054|
];
transition_y10=[
0.35,0.19,0.46|
0.33,0.34,0.33|
0.31,0.18,0.52|
];
transition_y11=[
0.071,0.75,0.18|
0.45,0.45,0.1|
0.3,0.36,0.34|
];
transition_y12=[
0.28,0.63,0.094|
0.35,0.32,0.33|
0.14,0.59,0.27|
];
